c n orig vars 118
p cnf 549 1790
119 -1 0
119 -2 0
-119 1 2 0
120 -3 0
120 -4 0
-120 3 4 0
121 -5 0
121 -6 0
-121 5 6 0
122 -7 0
122 -8 0
-122 7 8 0
123 -9 0
123 -10 0
-123 9 10 0
124 -11 0
124 -12 0
-124 11 12 0
125 -13 0
125 -14 0
-125 13 14 0
126 -15 0
126 -16 0
-126 15 16 0
127 -17 0
127 -18 0
-127 17 18 0
128 -19 0
128 -20 0
-128 19 20 0
129 -21 0
129 -22 0
-129 21 22 0
130 -23 0
130 -24 0
-130 23 24 0
131 -25 0
131 -26 0
-131 25 26 0
132 -27 0
132 -28 0
-132 27 28 0
-133 119 0
-133 120 0
-133 121 0
-133 122 0
-133 123 0
-133 124 0
-133 125 0
-133 126 0
-133 127 0
-133 128 0
-133 129 0
-133 130 0
-133 131 0
-133 132 0
133 -119 -120 -121 -122 -123 -124 -125 -126 -127 -128 -129 -130 -131 -132 0
-133 0
134 -29 0
134 -39 0
134 -49 0
134 -59 0
134 -69 0
134 -79 0
134 -89 0
134 -99 0
134 -109 0
-134 29 39 49 59 69 79 89 99 109 0
135 -30 0
135 -40 0
135 -50 0
135 -60 0
135 -70 0
135 -80 0
135 -90 0
135 -100 0
135 -110 0
-135 30 40 50 60 70 80 90 100 110 0
136 -31 0
136 -41 0
136 -51 0
136 -61 0
136 -71 0
136 -81 0
136 -91 0
136 -101 0
136 -111 0
-136 31 41 51 61 71 81 91 101 111 0
137 -32 0
137 -42 0
137 -52 0
137 -62 0
137 -72 0
137 -82 0
137 -92 0
137 -102 0
137 -112 0
-137 32 42 52 62 72 82 92 102 112 0
138 -33 0
138 -43 0
138 -53 0
138 -63 0
138 -73 0
138 -83 0
138 -93 0
138 -103 0
138 -113 0
-138 33 43 53 63 73 83 93 103 113 0
139 -34 0
139 -44 0
139 -54 0
139 -64 0
139 -74 0
139 -84 0
139 -94 0
139 -104 0
139 -114 0
-139 34 44 54 64 74 84 94 104 114 0
140 -35 0
140 -45 0
140 -55 0
140 -65 0
140 -75 0
140 -85 0
140 -95 0
140 -105 0
140 -115 0
-140 35 45 55 65 75 85 95 105 115 0
141 -36 0
141 -46 0
141 -56 0
141 -66 0
141 -76 0
141 -86 0
141 -96 0
141 -106 0
141 -116 0
-141 36 46 56 66 76 86 96 106 116 0
142 -37 0
142 -47 0
142 -57 0
142 -67 0
142 -77 0
142 -87 0
142 -97 0
142 -107 0
142 -117 0
-142 37 47 57 67 77 87 97 107 117 0
143 -38 0
143 -48 0
143 -58 0
143 -68 0
143 -78 0
143 -88 0
143 -98 0
143 -108 0
143 -118 0
-143 38 48 58 68 78 88 98 108 118 0
144 29 0
144 30 0
-144 -29 -30 0
145 29 0
145 31 0
-145 -29 -31 0
146 29 0
146 32 0
-146 -29 -32 0
147 29 0
147 33 0
-147 -29 -33 0
148 29 0
148 34 0
-148 -29 -34 0
149 29 0
149 35 0
-149 -29 -35 0
150 29 0
150 36 0
-150 -29 -36 0
151 29 0
151 37 0
-151 -29 -37 0
152 29 0
152 38 0
-152 -29 -38 0
153 30 0
153 31 0
-153 -30 -31 0
154 30 0
154 32 0
-154 -30 -32 0
155 30 0
155 33 0
-155 -30 -33 0
156 30 0
156 34 0
-156 -30 -34 0
157 30 0
157 35 0
-157 -30 -35 0
158 30 0
158 36 0
-158 -30 -36 0
159 30 0
159 37 0
-159 -30 -37 0
160 30 0
160 38 0
-160 -30 -38 0
161 31 0
161 32 0
-161 -31 -32 0
162 31 0
162 33 0
-162 -31 -33 0
163 31 0
163 34 0
-163 -31 -34 0
164 31 0
164 35 0
-164 -31 -35 0
165 31 0
165 36 0
-165 -31 -36 0
166 31 0
166 37 0
-166 -31 -37 0
167 31 0
167 38 0
-167 -31 -38 0
168 32 0
168 33 0
-168 -32 -33 0
169 32 0
169 34 0
-169 -32 -34 0
170 32 0
170 35 0
-170 -32 -35 0
171 32 0
171 36 0
-171 -32 -36 0
172 32 0
172 37 0
-172 -32 -37 0
173 32 0
173 38 0
-173 -32 -38 0
174 33 0
174 34 0
-174 -33 -34 0
175 33 0
175 35 0
-175 -33 -35 0
176 33 0
176 36 0
-176 -33 -36 0
177 33 0
177 37 0
-177 -33 -37 0
178 33 0
178 38 0
-178 -33 -38 0
179 34 0
179 35 0
-179 -34 -35 0
180 34 0
180 36 0
-180 -34 -36 0
181 34 0
181 37 0
-181 -34 -37 0
182 34 0
182 38 0
-182 -34 -38 0
183 35 0
183 36 0
-183 -35 -36 0
184 35 0
184 37 0
-184 -35 -37 0
185 35 0
185 38 0
-185 -35 -38 0
186 36 0
186 37 0
-186 -36 -37 0
187 36 0
187 38 0
-187 -36 -38 0
188 37 0
188 38 0
-188 -37 -38 0
189 39 0
189 40 0
-189 -39 -40 0
190 39 0
190 41 0
-190 -39 -41 0
191 39 0
191 42 0
-191 -39 -42 0
192 39 0
192 43 0
-192 -39 -43 0
193 39 0
193 44 0
-193 -39 -44 0
194 39 0
194 45 0
-194 -39 -45 0
195 39 0
195 46 0
-195 -39 -46 0
196 39 0
196 47 0
-196 -39 -47 0
197 39 0
197 48 0
-197 -39 -48 0
198 40 0
198 41 0
-198 -40 -41 0
199 40 0
199 42 0
-199 -40 -42 0
200 40 0
200 43 0
-200 -40 -43 0
201 40 0
201 44 0
-201 -40 -44 0
202 40 0
202 45 0
-202 -40 -45 0
203 40 0
203 46 0
-203 -40 -46 0
204 40 0
204 47 0
-204 -40 -47 0
205 40 0
205 48 0
-205 -40 -48 0
206 41 0
206 42 0
-206 -41 -42 0
207 41 0
207 43 0
-207 -41 -43 0
208 41 0
208 44 0
-208 -41 -44 0
209 41 0
209 45 0
-209 -41 -45 0
210 41 0
210 46 0
-210 -41 -46 0
211 41 0
211 47 0
-211 -41 -47 0
212 41 0
212 48 0
-212 -41 -48 0
213 42 0
213 43 0
-213 -42 -43 0
214 42 0
214 44 0
-214 -42 -44 0
215 42 0
215 45 0
-215 -42 -45 0
216 42 0
216 46 0
-216 -42 -46 0
217 42 0
217 47 0
-217 -42 -47 0
218 42 0
218 48 0
-218 -42 -48 0
219 43 0
219 44 0
-219 -43 -44 0
220 43 0
220 45 0
-220 -43 -45 0
221 43 0
221 46 0
-221 -43 -46 0
222 43 0
222 47 0
-222 -43 -47 0
223 43 0
223 48 0
-223 -43 -48 0
224 44 0
224 45 0
-224 -44 -45 0
225 44 0
225 46 0
-225 -44 -46 0
226 44 0
226 47 0
-226 -44 -47 0
227 44 0
227 48 0
-227 -44 -48 0
228 45 0
228 46 0
-228 -45 -46 0
229 45 0
229 47 0
-229 -45 -47 0
230 45 0
230 48 0
-230 -45 -48 0
231 46 0
231 47 0
-231 -46 -47 0
232 46 0
232 48 0
-232 -46 -48 0
233 47 0
233 48 0
-233 -47 -48 0
234 49 0
234 50 0
-234 -49 -50 0
235 49 0
235 51 0
-235 -49 -51 0
236 49 0
236 52 0
-236 -49 -52 0
237 49 0
237 53 0
-237 -49 -53 0
238 49 0
238 54 0
-238 -49 -54 0
239 49 0
239 55 0
-239 -49 -55 0
240 49 0
240 56 0
-240 -49 -56 0
241 49 0
241 57 0
-241 -49 -57 0
242 49 0
242 58 0
-242 -49 -58 0
243 50 0
243 51 0
-243 -50 -51 0
244 50 0
244 52 0
-244 -50 -52 0
245 50 0
245 53 0
-245 -50 -53 0
246 50 0
246 54 0
-246 -50 -54 0
247 50 0
247 55 0
-247 -50 -55 0
248 50 0
248 56 0
-248 -50 -56 0
249 50 0
249 57 0
-249 -50 -57 0
250 50 0
250 58 0
-250 -50 -58 0
251 51 0
251 52 0
-251 -51 -52 0
252 51 0
252 53 0
-252 -51 -53 0
253 51 0
253 54 0
-253 -51 -54 0
254 51 0
254 55 0
-254 -51 -55 0
255 51 0
255 56 0
-255 -51 -56 0
256 51 0
256 57 0
-256 -51 -57 0
257 51 0
257 58 0
-257 -51 -58 0
258 52 0
258 53 0
-258 -52 -53 0
259 52 0
259 54 0
-259 -52 -54 0
260 52 0
260 55 0
-260 -52 -55 0
261 52 0
261 56 0
-261 -52 -56 0
262 52 0
262 57 0
-262 -52 -57 0
263 52 0
263 58 0
-263 -52 -58 0
264 53 0
264 54 0
-264 -53 -54 0
265 53 0
265 55 0
-265 -53 -55 0
266 53 0
266 56 0
-266 -53 -56 0
267 53 0
267 57 0
-267 -53 -57 0
268 53 0
268 58 0
-268 -53 -58 0
269 54 0
269 55 0
-269 -54 -55 0
270 54 0
270 56 0
-270 -54 -56 0
271 54 0
271 57 0
-271 -54 -57 0
272 54 0
272 58 0
-272 -54 -58 0
273 55 0
273 56 0
-273 -55 -56 0
274 55 0
274 57 0
-274 -55 -57 0
275 55 0
275 58 0
-275 -55 -58 0
276 56 0
276 57 0
-276 -56 -57 0
277 56 0
277 58 0
-277 -56 -58 0
278 57 0
278 58 0
-278 -57 -58 0
279 59 0
279 60 0
-279 -59 -60 0
280 59 0
280 61 0
-280 -59 -61 0
281 59 0
281 62 0
-281 -59 -62 0
282 59 0
282 63 0
-282 -59 -63 0
283 59 0
283 64 0
-283 -59 -64 0
284 59 0
284 65 0
-284 -59 -65 0
285 59 0
285 66 0
-285 -59 -66 0
286 59 0
286 67 0
-286 -59 -67 0
287 59 0
287 68 0
-287 -59 -68 0
288 60 0
288 61 0
-288 -60 -61 0
289 60 0
289 62 0
-289 -60 -62 0
290 60 0
290 63 0
-290 -60 -63 0
291 60 0
291 64 0
-291 -60 -64 0
292 60 0
292 65 0
-292 -60 -65 0
293 60 0
293 66 0
-293 -60 -66 0
294 60 0
294 67 0
-294 -60 -67 0
295 60 0
295 68 0
-295 -60 -68 0
296 61 0
296 62 0
-296 -61 -62 0
297 61 0
297 63 0
-297 -61 -63 0
298 61 0
298 64 0
-298 -61 -64 0
299 61 0
299 65 0
-299 -61 -65 0
300 61 0
300 66 0
-300 -61 -66 0
301 61 0
301 67 0
-301 -61 -67 0
302 61 0
302 68 0
-302 -61 -68 0
303 62 0
303 63 0
-303 -62 -63 0
304 62 0
304 64 0
-304 -62 -64 0
305 62 0
305 65 0
-305 -62 -65 0
306 62 0
306 66 0
-306 -62 -66 0
307 62 0
307 67 0
-307 -62 -67 0
308 62 0
308 68 0
-308 -62 -68 0
309 63 0
309 64 0
-309 -63 -64 0
310 63 0
310 65 0
-310 -63 -65 0
311 63 0
311 66 0
-311 -63 -66 0
312 63 0
312 67 0
-312 -63 -67 0
313 63 0
313 68 0
-313 -63 -68 0
314 64 0
314 65 0
-314 -64 -65 0
315 64 0
315 66 0
-315 -64 -66 0
316 64 0
316 67 0
-316 -64 -67 0
317 64 0
317 68 0
-317 -64 -68 0
318 65 0
318 66 0
-318 -65 -66 0
319 65 0
319 67 0
-319 -65 -67 0
320 65 0
320 68 0
-320 -65 -68 0
321 66 0
321 67 0
-321 -66 -67 0
322 66 0
322 68 0
-322 -66 -68 0
323 67 0
323 68 0
-323 -67 -68 0
324 69 0
324 70 0
-324 -69 -70 0
325 69 0
325 71 0
-325 -69 -71 0
326 69 0
326 72 0
-326 -69 -72 0
327 69 0
327 73 0
-327 -69 -73 0
328 69 0
328 74 0
-328 -69 -74 0
329 69 0
329 75 0
-329 -69 -75 0
330 69 0
330 76 0
-330 -69 -76 0
331 69 0
331 77 0
-331 -69 -77 0
332 69 0
332 78 0
-332 -69 -78 0
333 70 0
333 71 0
-333 -70 -71 0
334 70 0
334 72 0
-334 -70 -72 0
335 70 0
335 73 0
-335 -70 -73 0
336 70 0
336 74 0
-336 -70 -74 0
337 70 0
337 75 0
-337 -70 -75 0
338 70 0
338 76 0
-338 -70 -76 0
339 70 0
339 77 0
-339 -70 -77 0
340 70 0
340 78 0
-340 -70 -78 0
341 71 0
341 72 0
-341 -71 -72 0
342 71 0
342 73 0
-342 -71 -73 0
343 71 0
343 74 0
-343 -71 -74 0
344 71 0
344 75 0
-344 -71 -75 0
345 71 0
345 76 0
-345 -71 -76 0
346 71 0
346 77 0
-346 -71 -77 0
347 71 0
347 78 0
-347 -71 -78 0
348 72 0
348 73 0
-348 -72 -73 0
349 72 0
349 74 0
-349 -72 -74 0
350 72 0
350 75 0
-350 -72 -75 0
351 72 0
351 76 0
-351 -72 -76 0
352 72 0
352 77 0
-352 -72 -77 0
353 72 0
353 78 0
-353 -72 -78 0
354 73 0
354 74 0
-354 -73 -74 0
355 73 0
355 75 0
-355 -73 -75 0
356 73 0
356 76 0
-356 -73 -76 0
357 73 0
357 77 0
-357 -73 -77 0
358 73 0
358 78 0
-358 -73 -78 0
359 74 0
359 75 0
-359 -74 -75 0
360 74 0
360 76 0
-360 -74 -76 0
361 74 0
361 77 0
-361 -74 -77 0
362 74 0
362 78 0
-362 -74 -78 0
363 75 0
363 76 0
-363 -75 -76 0
364 75 0
364 77 0
-364 -75 -77 0
365 75 0
365 78 0
-365 -75 -78 0
366 76 0
366 77 0
-366 -76 -77 0
367 76 0
367 78 0
-367 -76 -78 0
368 77 0
368 78 0
-368 -77 -78 0
369 79 0
369 80 0
-369 -79 -80 0
370 79 0
370 81 0
-370 -79 -81 0
371 79 0
371 82 0
-371 -79 -82 0
372 79 0
372 83 0
-372 -79 -83 0
373 79 0
373 84 0
-373 -79 -84 0
374 79 0
374 85 0
-374 -79 -85 0
375 79 0
375 86 0
-375 -79 -86 0
376 79 0
376 87 0
-376 -79 -87 0
377 79 0
377 88 0
-377 -79 -88 0
378 80 0
378 81 0
-378 -80 -81 0
379 80 0
379 82 0
-379 -80 -82 0
380 80 0
380 83 0
-380 -80 -83 0
381 80 0
381 84 0
-381 -80 -84 0
382 80 0
382 85 0
-382 -80 -85 0
383 80 0
383 86 0
-383 -80 -86 0
384 80 0
384 87 0
-384 -80 -87 0
385 80 0
385 88 0
-385 -80 -88 0
386 81 0
386 82 0
-386 -81 -82 0
387 81 0
387 83 0
-387 -81 -83 0
388 81 0
388 84 0
-388 -81 -84 0
389 81 0
389 85 0
-389 -81 -85 0
390 81 0
390 86 0
-390 -81 -86 0
391 81 0
391 87 0
-391 -81 -87 0
392 81 0
392 88 0
-392 -81 -88 0
393 82 0
393 83 0
-393 -82 -83 0
394 82 0
394 84 0
-394 -82 -84 0
395 82 0
395 85 0
-395 -82 -85 0
396 82 0
396 86 0
-396 -82 -86 0
397 82 0
397 87 0
-397 -82 -87 0
398 82 0
398 88 0
-398 -82 -88 0
399 83 0
399 84 0
-399 -83 -84 0
400 83 0
400 85 0
-400 -83 -85 0
401 83 0
401 86 0
-401 -83 -86 0
402 83 0
402 87 0
-402 -83 -87 0
403 83 0
403 88 0
-403 -83 -88 0
404 84 0
404 85 0
-404 -84 -85 0
405 84 0
405 86 0
-405 -84 -86 0
406 84 0
406 87 0
-406 -84 -87 0
407 84 0
407 88 0
-407 -84 -88 0
408 85 0
408 86 0
-408 -85 -86 0
409 85 0
409 87 0
-409 -85 -87 0
410 85 0
410 88 0
-410 -85 -88 0
411 86 0
411 87 0
-411 -86 -87 0
412 86 0
412 88 0
-412 -86 -88 0
413 87 0
413 88 0
-413 -87 -88 0
414 89 0
414 90 0
-414 -89 -90 0
415 89 0
415 91 0
-415 -89 -91 0
416 89 0
416 92 0
-416 -89 -92 0
417 89 0
417 93 0
-417 -89 -93 0
418 89 0
418 94 0
-418 -89 -94 0
419 89 0
419 95 0
-419 -89 -95 0
420 89 0
420 96 0
-420 -89 -96 0
421 89 0
421 97 0
-421 -89 -97 0
422 89 0
422 98 0
-422 -89 -98 0
423 90 0
423 91 0
-423 -90 -91 0
424 90 0
424 92 0
-424 -90 -92 0
425 90 0
425 93 0
-425 -90 -93 0
426 90 0
426 94 0
-426 -90 -94 0
427 90 0
427 95 0
-427 -90 -95 0
428 90 0
428 96 0
-428 -90 -96 0
429 90 0
429 97 0
-429 -90 -97 0
430 90 0
430 98 0
-430 -90 -98 0
431 91 0
431 92 0
-431 -91 -92 0
432 91 0
432 93 0
-432 -91 -93 0
433 91 0
433 94 0
-433 -91 -94 0
434 91 0
434 95 0
-434 -91 -95 0
435 91 0
435 96 0
-435 -91 -96 0
436 91 0
436 97 0
-436 -91 -97 0
437 91 0
437 98 0
-437 -91 -98 0
438 92 0
438 93 0
-438 -92 -93 0
439 92 0
439 94 0
-439 -92 -94 0
440 92 0
440 95 0
-440 -92 -95 0
441 92 0
441 96 0
-441 -92 -96 0
442 92 0
442 97 0
-442 -92 -97 0
443 92 0
443 98 0
-443 -92 -98 0
444 93 0
444 94 0
-444 -93 -94 0
445 93 0
445 95 0
-445 -93 -95 0
446 93 0
446 96 0
-446 -93 -96 0
447 93 0
447 97 0
-447 -93 -97 0
448 93 0
448 98 0
-448 -93 -98 0
449 94 0
449 95 0
-449 -94 -95 0
450 94 0
450 96 0
-450 -94 -96 0
451 94 0
451 97 0
-451 -94 -97 0
452 94 0
452 98 0
-452 -94 -98 0
453 95 0
453 96 0
-453 -95 -96 0
454 95 0
454 97 0
-454 -95 -97 0
455 95 0
455 98 0
-455 -95 -98 0
456 96 0
456 97 0
-456 -96 -97 0
457 96 0
457 98 0
-457 -96 -98 0
458 97 0
458 98 0
-458 -97 -98 0
459 99 0
459 100 0
-459 -99 -100 0
460 99 0
460 101 0
-460 -99 -101 0
461 99 0
461 102 0
-461 -99 -102 0
462 99 0
462 103 0
-462 -99 -103 0
463 99 0
463 104 0
-463 -99 -104 0
464 99 0
464 105 0
-464 -99 -105 0
465 99 0
465 106 0
-465 -99 -106 0
466 99 0
466 107 0
-466 -99 -107 0
467 99 0
467 108 0
-467 -99 -108 0
468 100 0
468 101 0
-468 -100 -101 0
469 100 0
469 102 0
-469 -100 -102 0
470 100 0
470 103 0
-470 -100 -103 0
471 100 0
471 104 0
-471 -100 -104 0
472 100 0
472 105 0
-472 -100 -105 0
473 100 0
473 106 0
-473 -100 -106 0
474 100 0
474 107 0
-474 -100 -107 0
475 100 0
475 108 0
-475 -100 -108 0
476 101 0
476 102 0
-476 -101 -102 0
477 101 0
477 103 0
-477 -101 -103 0
478 101 0
478 104 0
-478 -101 -104 0
479 101 0
479 105 0
-479 -101 -105 0
480 101 0
480 106 0
-480 -101 -106 0
481 101 0
481 107 0
-481 -101 -107 0
482 101 0
482 108 0
-482 -101 -108 0
483 102 0
483 103 0
-483 -102 -103 0
484 102 0
484 104 0
-484 -102 -104 0
485 102 0
485 105 0
-485 -102 -105 0
486 102 0
486 106 0
-486 -102 -106 0
487 102 0
487 107 0
-487 -102 -107 0
488 102 0
488 108 0
-488 -102 -108 0
489 103 0
489 104 0
-489 -103 -104 0
490 103 0
490 105 0
-490 -103 -105 0
491 103 0
491 106 0
-491 -103 -106 0
492 103 0
492 107 0
-492 -103 -107 0
493 103 0
493 108 0
-493 -103 -108 0
494 104 0
494 105 0
-494 -104 -105 0
495 104 0
495 106 0
-495 -104 -106 0
496 104 0
496 107 0
-496 -104 -107 0
497 104 0
497 108 0
-497 -104 -108 0
498 105 0
498 106 0
-498 -105 -106 0
499 105 0
499 107 0
-499 -105 -107 0
500 105 0
500 108 0
-500 -105 -108 0
501 106 0
501 107 0
-501 -106 -107 0
502 106 0
502 108 0
-502 -106 -108 0
503 107 0
503 108 0
-503 -107 -108 0
504 109 0
504 110 0
-504 -109 -110 0
505 109 0
505 111 0
-505 -109 -111 0
506 109 0
506 112 0
-506 -109 -112 0
507 109 0
507 113 0
-507 -109 -113 0
508 109 0
508 114 0
-508 -109 -114 0
509 109 0
509 115 0
-509 -109 -115 0
510 109 0
510 116 0
-510 -109 -116 0
511 109 0
511 117 0
-511 -109 -117 0
512 109 0
512 118 0
-512 -109 -118 0
513 110 0
513 111 0
-513 -110 -111 0
514 110 0
514 112 0
-514 -110 -112 0
515 110 0
515 113 0
-515 -110 -113 0
516 110 0
516 114 0
-516 -110 -114 0
517 110 0
517 115 0
-517 -110 -115 0
518 110 0
518 116 0
-518 -110 -116 0
519 110 0
519 117 0
-519 -110 -117 0
520 110 0
520 118 0
-520 -110 -118 0
521 111 0
521 112 0
-521 -111 -112 0
522 111 0
522 113 0
-522 -111 -113 0
523 111 0
523 114 0
-523 -111 -114 0
524 111 0
524 115 0
-524 -111 -115 0
525 111 0
525 116 0
-525 -111 -116 0
526 111 0
526 117 0
-526 -111 -117 0
527 111 0
527 118 0
-527 -111 -118 0
528 112 0
528 113 0
-528 -112 -113 0
529 112 0
529 114 0
-529 -112 -114 0
530 112 0
530 115 0
-530 -112 -115 0
531 112 0
531 116 0
-531 -112 -116 0
532 112 0
532 117 0
-532 -112 -117 0
533 112 0
533 118 0
-533 -112 -118 0
534 113 0
534 114 0
-534 -113 -114 0
535 113 0
535 115 0
-535 -113 -115 0
536 113 0
536 116 0
-536 -113 -116 0
537 113 0
537 117 0
-537 -113 -117 0
538 113 0
538 118 0
-538 -113 -118 0
539 114 0
539 115 0
-539 -114 -115 0
540 114 0
540 116 0
-540 -114 -116 0
541 114 0
541 117 0
-541 -114 -117 0
542 114 0
542 118 0
-542 -114 -118 0
543 115 0
543 116 0
-543 -115 -116 0
544 115 0
544 117 0
-544 -115 -117 0
545 115 0
545 118 0
-545 -115 -118 0
546 116 0
546 117 0
-546 -116 -117 0
547 116 0
547 118 0
-547 -116 -118 0
548 117 0
548 118 0
-548 -117 -118 0
-549 134 0
-549 135 0
-549 136 0
-549 137 0
-549 138 0
-549 139 0
-549 140 0
-549 141 0
-549 142 0
-549 143 0
-549 144 0
-549 145 0
-549 146 0
-549 147 0
-549 148 0
-549 149 0
-549 150 0
-549 151 0
-549 152 0
-549 153 0
-549 154 0
-549 155 0
-549 156 0
-549 157 0
-549 158 0
-549 159 0
-549 160 0
-549 161 0
-549 162 0
-549 163 0
-549 164 0
-549 165 0
-549 166 0
-549 167 0
-549 168 0
-549 169 0
-549 170 0
-549 171 0
-549 172 0
-549 173 0
-549 174 0
-549 175 0
-549 176 0
-549 177 0
-549 178 0
-549 179 0
-549 180 0
-549 181 0
-549 182 0
-549 183 0
-549 184 0
-549 185 0
-549 186 0
-549 187 0
-549 188 0
-549 189 0
-549 190 0
-549 191 0
-549 192 0
-549 193 0
-549 194 0
-549 195 0
-549 196 0
-549 197 0
-549 198 0
-549 199 0
-549 200 0
-549 201 0
-549 202 0
-549 203 0
-549 204 0
-549 205 0
-549 206 0
-549 207 0
-549 208 0
-549 209 0
-549 210 0
-549 211 0
-549 212 0
-549 213 0
-549 214 0
-549 215 0
-549 216 0
-549 217 0
-549 218 0
-549 219 0
-549 220 0
-549 221 0
-549 222 0
-549 223 0
-549 224 0
-549 225 0
-549 226 0
-549 227 0
-549 228 0
-549 229 0
-549 230 0
-549 231 0
-549 232 0
-549 233 0
-549 234 0
-549 235 0
-549 236 0
-549 237 0
-549 238 0
-549 239 0
-549 240 0
-549 241 0
-549 242 0
-549 243 0
-549 244 0
-549 245 0
-549 246 0
-549 247 0
-549 248 0
-549 249 0
-549 250 0
-549 251 0
-549 252 0
-549 253 0
-549 254 0
-549 255 0
-549 256 0
-549 257 0
-549 258 0
-549 259 0
-549 260 0
-549 261 0
-549 262 0
-549 263 0
-549 264 0
-549 265 0
-549 266 0
-549 267 0
-549 268 0
-549 269 0
-549 270 0
-549 271 0
-549 272 0
-549 273 0
-549 274 0
-549 275 0
-549 276 0
-549 277 0
-549 278 0
-549 279 0
-549 280 0
-549 281 0
-549 282 0
-549 283 0
-549 284 0
-549 285 0
-549 286 0
-549 287 0
-549 288 0
-549 289 0
-549 290 0
-549 291 0
-549 292 0
-549 293 0
-549 294 0
-549 295 0
-549 296 0
-549 297 0
-549 298 0
-549 299 0
-549 300 0
-549 301 0
-549 302 0
-549 303 0
-549 304 0
-549 305 0
-549 306 0
-549 307 0
-549 308 0
-549 309 0
-549 310 0
-549 311 0
-549 312 0
-549 313 0
-549 314 0
-549 315 0
-549 316 0
-549 317 0
-549 318 0
-549 319 0
-549 320 0
-549 321 0
-549 322 0
-549 323 0
-549 324 0
-549 325 0
-549 326 0
-549 327 0
-549 328 0
-549 329 0
-549 330 0
-549 331 0
-549 332 0
-549 333 0
-549 334 0
-549 335 0
-549 336 0
-549 337 0
-549 338 0
-549 339 0
-549 340 0
-549 341 0
-549 342 0
-549 343 0
-549 344 0
-549 345 0
-549 346 0
-549 347 0
-549 348 0
-549 349 0
-549 350 0
-549 351 0
-549 352 0
-549 353 0
-549 354 0
-549 355 0
-549 356 0
-549 357 0
-549 358 0
-549 359 0
-549 360 0
-549 361 0
-549 362 0
-549 363 0
-549 364 0
-549 365 0
-549 366 0
-549 367 0
-549 368 0
-549 369 0
-549 370 0
-549 371 0
-549 372 0
-549 373 0
-549 374 0
-549 375 0
-549 376 0
-549 377 0
-549 378 0
-549 379 0
-549 380 0
-549 381 0
-549 382 0
-549 383 0
-549 384 0
-549 385 0
-549 386 0
-549 387 0
-549 388 0
-549 389 0
-549 390 0
-549 391 0
-549 392 0
-549 393 0
-549 394 0
-549 395 0
-549 396 0
-549 397 0
-549 398 0
-549 399 0
-549 400 0
-549 401 0
-549 402 0
-549 403 0
-549 404 0
-549 405 0
-549 406 0
-549 407 0
-549 408 0
-549 409 0
-549 410 0
-549 411 0
-549 412 0
-549 413 0
-549 414 0
-549 415 0
-549 416 0
-549 417 0
-549 418 0
-549 419 0
-549 420 0
-549 421 0
-549 422 0
-549 423 0
-549 424 0
-549 425 0
-549 426 0
-549 427 0
-549 428 0
-549 429 0
-549 430 0
-549 431 0
-549 432 0
-549 433 0
-549 434 0
-549 435 0
-549 436 0
-549 437 0
-549 438 0
-549 439 0
-549 440 0
-549 441 0
-549 442 0
-549 443 0
-549 444 0
-549 445 0
-549 446 0
-549 447 0
-549 448 0
-549 449 0
-549 450 0
-549 451 0
-549 452 0
-549 453 0
-549 454 0
-549 455 0
-549 456 0
-549 457 0
-549 458 0
-549 459 0
-549 460 0
-549 461 0
-549 462 0
-549 463 0
-549 464 0
-549 465 0
-549 466 0
-549 467 0
-549 468 0
-549 469 0
-549 470 0
-549 471 0
-549 472 0
-549 473 0
-549 474 0
-549 475 0
-549 476 0
-549 477 0
-549 478 0
-549 479 0
-549 480 0
-549 481 0
-549 482 0
-549 483 0
-549 484 0
-549 485 0
-549 486 0
-549 487 0
-549 488 0
-549 489 0
-549 490 0
-549 491 0
-549 492 0
-549 493 0
-549 494 0
-549 495 0
-549 496 0
-549 497 0
-549 498 0
-549 499 0
-549 500 0
-549 501 0
-549 502 0
-549 503 0
-549 504 0
-549 505 0
-549 506 0
-549 507 0
-549 508 0
-549 509 0
-549 510 0
-549 511 0
-549 512 0
-549 513 0
-549 514 0
-549 515 0
-549 516 0
-549 517 0
-549 518 0
-549 519 0
-549 520 0
-549 521 0
-549 522 0
-549 523 0
-549 524 0
-549 525 0
-549 526 0
-549 527 0
-549 528 0
-549 529 0
-549 530 0
-549 531 0
-549 532 0
-549 533 0
-549 534 0
-549 535 0
-549 536 0
-549 537 0
-549 538 0
-549 539 0
-549 540 0
-549 541 0
-549 542 0
-549 543 0
-549 544 0
-549 545 0
-549 546 0
-549 547 0
-549 548 0
549 -134 -135 -136 -137 -138 -139 -140 -141 -142 -143 -144 -145 -146 -147 -148 -149 -150 -151 -152 -153 -154 -155 -156 -157 -158 -159 -160 -161 -162 -163 -164 -165 -166 -167 -168 -169 -170 -171 -172 -173 -174 -175 -176 -177 -178 -179 -180 -181 -182 -183 -184 -185 -186 -187 -188 -189 -190 -191 -192 -193 -194 -195 -196 -197 -198 -199 -200 -201 -202 -203 -204 -205 -206 -207 -208 -209 -210 -211 -212 -213 -214 -215 -216 -217 -218 -219 -220 -221 -222 -223 -224 -225 -226 -227 -228 -229 -230 -231 -232 -233 -234 -235 -236 -237 -238 -239 -240 -241 -242 -243 -244 -245 -246 -247 -248 -249 -250 -251 -252 -253 -254 -255 -256 -257 -258 -259 -260 -261 -262 -263 -264 -265 -266 -267 -268 -269 -270 -271 -272 -273 -274 -275 -276 -277 -278 -279 -280 -281 -282 -283 -284 -285 -286 -287 -288 -289 -290 -291 -292 -293 -294 -295 -296 -297 -298 -299 -300 -301 -302 -303 -304 -305 -306 -307 -308 -309 -310 -311 -312 -313 -314 -315 -316 -317 -318 -319 -320 -321 -322 -323 -324 -325 -326 -327 -328 -329 -330 -331 -332 -333 -334 -335 -336 -337 -338 -339 -340 -341 -342 -343 -344 -345 -346 -347 -348 -349 -350 -351 -352 -353 -354 -355 -356 -357 -358 -359 -360 -361 -362 -363 -364 -365 -366 -367 -368 -369 -370 -371 -372 -373 -374 -375 -376 -377 -378 -379 -380 -381 -382 -383 -384 -385 -386 -387 -388 -389 -390 -391 -392 -393 -394 -395 -396 -397 -398 -399 -400 -401 -402 -403 -404 -405 -406 -407 -408 -409 -410 -411 -412 -413 -414 -415 -416 -417 -418 -419 -420 -421 -422 -423 -424 -425 -426 -427 -428 -429 -430 -431 -432 -433 -434 -435 -436 -437 -438 -439 -440 -441 -442 -443 -444 -445 -446 -447 -448 -449 -450 -451 -452 -453 -454 -455 -456 -457 -458 -459 -460 -461 -462 -463 -464 -465 -466 -467 -468 -469 -470 -471 -472 -473 -474 -475 -476 -477 -478 -479 -480 -481 -482 -483 -484 -485 -486 -487 -488 -489 -490 -491 -492 -493 -494 -495 -496 -497 -498 -499 -500 -501 -502 -503 -504 -505 -506 -507 -508 -509 -510 -511 -512 -513 -514 -515 -516 -517 -518 -519 -520 -521 -522 -523 -524 -525 -526 -527 -528 -529 -530 -531 -532 -533 -534 -535 -536 -537 -538 -539 -540 -541 -542 -543 -544 -545 -546 -547 -548 0
-549 0
